This is Ipopt version 3.14.16, running with linear solver MUMPS 5.7.3.

Number of nonzeros in equality constraint Jacobian...:        0
Number of nonzeros in inequality constraint Jacobian.:      416
Number of nonzeros in Lagrangian Hessian.............:        0

Total number of variables............................:       13
                     variables with only lower bounds:        0
                variables with lower and upper bounds:       13
                     variables with only upper bounds:        0
Total number of equality constraints.................:        0
Total number of inequality constraints...............:       32
        inequality constraints with only lower bounds:        0
   inequality constraints with lower and upper bounds:        0
        inequality constraints with only upper bounds:       32

iter    objective    inf_pr   inf_du lg(mu)  ||d||  lg(rg) alpha_du alpha_pr  ls
   0  4.4257943e-02 3.91e+00 7.23e-01   0.0 0.00e+00    -  0.00e+00 0.00e+00   0
   1  1.0096766e-01 1.34e+00 2.16e+00  -1.2 1.33e+00    -  3.52e-01 7.22e-01f  1
   2  1.3933066e-01 6.58e-02 8.13e-01  -2.2 4.74e-01    -  7.50e-01 1.00e+00h  1
   3  1.4154032e-01 0.00e+00 4.02e-02  -2.8 4.73e-02    -  9.79e-01 1.00e+00h  1
   4  1.4126748e-01 0.00e+00 3.51e-02  -4.1 7.75e-02    -  9.22e-01 1.00e+00h  1
   5  1.3620920e-01 2.91e-01 2.35e-01  -2.9 6.40e+00    -  8.59e-01 2.20e-01f  1
   6  1.3956367e-01 1.01e-01 3.28e-03  -2.6 8.03e-01    -  1.00e+00 1.00e+00h  1
   7  1.4514130e-01 0.00e+00 4.59e-03  -2.7 2.62e-01    -  1.00e+00 1.00e+00h  1
   8  1.4162373e-01 9.60e-03 5.08e-02  -4.0 1.72e-01    -  8.66e-01 9.50e-01h  1
   9  1.4063055e-01 5.97e-03 7.50e-03  -4.0 2.35e-01    -  9.08e-01 1.00e+00h  1
iter    objective    inf_pr   inf_du lg(mu)  ||d||  lg(rg) alpha_du alpha_pr  ls
  10  1.4039686e-01 1.82e-03 3.12e-04  -4.7 1.85e-01    -  9.99e-01 1.00e+00h  1
  11  1.4031352e-01 1.81e-03 2.32e-04  -5.2 1.48e-01    -  9.87e-01 1.00e+00h  1
  12  1.4037347e-01 0.00e+00 9.94e-05  -5.8 8.40e-02    -  9.96e-01 1.00e+00h  1

Number of Iterations....: 12

                                   (scaled)                 (unscaled)
Objective...............:   1.4037347229153763e-01    1.4037347229153763e-01
Dual infeasibility......:   9.9387243940347118e-05    9.9387243940347118e-05
Constraint violation....:   0.0000000000000000e+00    0.0000000000000000e+00
Variable bound violation:   0.0000000000000000e+00    0.0000000000000000e+00
Complementarity.........:   4.4523324145811660e-06    4.4523324145811660e-06
Overall NLP error.......:   9.9387243940347118e-05    9.9387243940347118e-05


Number of objective function evaluations             = 13
Number of objective gradient evaluations             = 13
Number of equality constraint evaluations            = 0
Number of inequality constraint evaluations          = 13
Number of equality constraint Jacobian evaluations   = 0
Number of inequality constraint Jacobian evaluations = 13
Number of Lagrangian Hessian evaluations             = 0
Total seconds in IPOPT                               = 1.360

EXIT: Optimal Solution Found.
